
<<< setup


<<< generate

Version identifier: 22.1.1.0 | 2022-11-27 | 9160aff4d
Tried aggregator 1 time.
MIQCP Presolve eliminated 850 rows and 1 columns.
MIQCP Presolve modified 1793 coefficients.
Reduced MIQCP has 7722 rows, 6965 columns, and 83706 nonzeros.
Reduced MIQCP has 290 binaries, 0 generals, 0 SOSs, and 0 indicators.
Reduced MIQCP has 1170 quadratic constraints.
Presolve time = 0,30 sec. (317,15 ticks)
Probing fixed 0 vars, tightened 4745 bounds.
Probing time = 0,16 sec. (208,29 ticks)
Clique table members: 1580.
MIP emphasis: balance optimality and feasibility.
MIP search method: dynamic search.
Parallel mode: deterministic, using up to 12 threads.
Root relaxation solution time = 0,16 sec. (277,02 ticks)

        Nodes                                         Cuts/
   Node  Left     Objective  IInf  Best Integer    Best Bound    ItCnt     Gap

      0     0     7136,1419     0                  24155,6299      855         
      0     0     6931,5496   252                     Cone: 1     1392         
      0     0     6781,2434   273                     Cone: 2     1572         
      0     0     6722,3023   272                     Cone: 3     1713         
      0     0     6691,8127   272                     Cone: 4     1803         
      0     0     6666,7203   271                     Cone: 5     1920         
      0     0     6657,4372   273                     Cone: 6     2019         
